(declare-fun FPCHECK_FMUL_ACCURACY
             ((_ FloatingPoint 11 53) (_ FloatingPoint 11 53))
             Bool)
(declare-fun b_ack!19 () (_ BitVec 64))
(assert (FPCHECK_FMUL_ACCURACY
  (fp.sub roundNearestTiesToEven
          ((_ to_fp 11 53) #x8000000000000000)
          ((_ to_fp 11 53) b_ack!19))
  (fp.sub roundNearestTiesToEven
          ((_ to_fp 11 53) #x8000000000000000)
          ((_ to_fp 11 53) b_ack!19))))

(check-sat)
(exit)
